language Essence 1.3
$ generated by bacp-gen.pl with seed 960833342
$ edge probability 0.0595
$ course loads in range 2..8
letting n_courses be 158
letting n_periods be 29
letting load_per_period_lb be 6
letting load_per_period_ub be 49
letting courses_per_period_lb be 5
letting courses_per_period_ub be 10
letting course_load be function(
1 --> 7,
2 --> 7,
3 --> 3,
4 --> 2,
5 --> 4,
6 --> 7,
7 --> 7,
8 --> 2,
9 --> 2,
10 --> 6,
11 --> 6,
12 --> 3,
13 --> 5,
14 --> 7,
15 --> 3,
16 --> 6,
17 --> 7,
18 --> 2,
19 --> 2,
20 --> 8,
21 --> 4,
22 --> 3,
23 --> 6,
24 --> 7,
25 --> 3,
26 --> 7,
27 --> 5,
28 --> 7,
29 --> 3,
30 --> 8,
31 --> 7,
32 --> 2,
33 --> 7,
34 --> 3,
35 --> 8,
36 --> 3,
37 --> 6,
38 --> 7,
39 --> 6,
40 --> 7,
41 --> 3,
42 --> 3,
43 --> 5,
44 --> 4,
45 --> 2,
46 --> 6,
47 --> 3,
48 --> 2,
49 --> 4,
50 --> 4,
51 --> 4,
52 --> 4,
53 --> 2,
54 --> 3,
55 --> 6,
56 --> 7,
57 --> 7,
58 --> 6,
59 --> 4,
60 --> 5,
61 --> 7,
62 --> 6,
63 --> 3,
64 --> 6,
65 --> 7,
66 --> 7,
67 --> 2,
68 --> 6,
69 --> 2,
70 --> 7,
71 --> 2,
72 --> 7,
73 --> 3,
74 --> 3,
75 --> 6,
76 --> 7,
77 --> 3,
78 --> 2,
79 --> 4,
80 --> 5,
81 --> 2,
82 --> 4,
83 --> 5,
84 --> 4,
85 --> 8,
86 --> 3,
87 --> 4,
88 --> 7,
89 --> 4,
90 --> 3,
91 --> 6,
92 --> 8,
93 --> 2,
94 --> 5,
95 --> 5,
96 --> 4,
97 --> 3,
98 --> 4,
99 --> 5,
100 --> 8,
101 --> 7,
102 --> 3,
103 --> 6,
104 --> 4,
105 --> 6,
106 --> 4,
107 --> 3,
108 --> 6,
109 --> 4,
110 --> 3,
111 --> 7,
112 --> 3,
113 --> 3,
114 --> 5,
115 --> 2,
116 --> 2,
117 --> 2,
118 --> 4,
119 --> 5,
120 --> 7,
121 --> 2,
122 --> 5,
123 --> 6,
124 --> 3,
125 --> 2,
126 --> 7,
127 --> 4,
128 --> 5,
129 --> 5,
130 --> 3,
131 --> 4,
132 --> 5,
133 --> 5,
134 --> 3,
135 --> 3,
136 --> 2,
137 --> 5,
138 --> 5,
139 --> 4,
140 --> 7,
141 --> 3,
142 --> 6,
143 --> 5,
144 --> 2,
145 --> 2,
146 --> 6,
147 --> 7,
148 --> 8,
149 --> 2,
150 --> 5,
151 --> 7,
152 --> 7,
153 --> 7,
154 --> 8,
155 --> 4,
156 --> 7,
157 --> 5,
158 --> 3
)
letting prerequisite be relation (
(42,45),
(9,46),
(15,47),
(4,48),
(34,49),
(31,50),
(21,51),
(26,52),
(24,53),
(44,54),
(20,55),
(16,56),
(14,57),
(3,58),
(4,59),
(9,60),
(31,61),
(13,62),
(19,63),
(39,64),
(18,65),
(18,66),
(42,67),
(32,68),
(19,69),
(20,70),
(40,71),
(28,72),
(30,73),
(15,74),
(12,75),
(10,76),
(33,77),
(31,78),
(37,79),
(9,80),
(11,81),
(6,82),
(17,83),
(28,84),
(32,85),
(14,86),
(24,87),
(9,88),
(21,89),
(6,90),
(41,91),
(11,92),
(9,93),
(32,94),
(14,95),
(24,96),
(22,97),
(33,98),
(7,99),
(11,100),
(5,101),
(20,102),
(10,103),
(41,104),
(34,105),
(23,106),
(37,107),
(27,108),
(10,109),
(18,110),
(8,111),
(28,112),
(13,113),
(21,114),
(33,115),
(37,116),
(20,117),
(29,118),
(12,119),
(15,120),
(14,121),
(44,122),
(19,123),
(24,124),
(18,125),
(33,126),
(40,127),
(22,128),
(14,129),
(125,130),
(99,131),
(77,132),
(100,133),
(108,134),
(110,135),
(107,136),
(106,137),
(49,138),
(125,139),
(89,140),
(62,141),
(109,142),
(56,143),
(126,144),
(79,145),
(129,146),
(110,147),
(79,148),
(118,149),
(76,150),
(115,151),
(88,152),
(113,153),
(89,154),
(118,155),
(56,156),
(119,157),
(109,158),
(105,133),
(18,88),
(124,158),
(25,109),
(22,49),
(35,82),
(33,76),
(41,45),
(44,121),
(87,148),
(13,126),
(36,99),
(23,83),
(6,106),
(74,133),
(17,54),
(18,73),
(32,50),
(73,158),
(40,111),
(29,120),
(26,125),
(38,66),
(27,104),
(2,61),
(29,48),
(36,65),
(31,63),
(25,111),
(43,77),
(52,151),
(37,55),
(102,133),
(3,101),
(112,147),
(27,121),
(35,53),
(12,126),
(99,152),
(60,134),
(55,137),
(99,142),
(5,56),
(42,82),
(80,141),
(21,62),
(35,101),
(35,125),
(25,122),
(74,148),
(109,141),
(93,152),
(12,74),
(26,45),
(31,128),
(29,53),
(9,120),
(22,102),
(23,127),
(19,86),
(89,156),
(45,142),
(8,51),
(65,153),
(25,82),
(11,54),
(41,66),
(92,152),
(5,83),
(12,48),
(19,106),
(16,122),
(12,94),
(12,117),
(62,147),
(24,79),
(71,136),
(65,138),
(80,151),
(24,82),
(87,149),
(112,156),
(120,153),
(63,131),
(36,89),
(65,132),
(1,79),
(102,145),
(80,144),
(96,140),
(28,115),
(1,128),
(1,129),
(117,134),
(13,46),
(22,54),
(40,60),
(13,85),
(64,138),
(77,137),
(18,67),
(118,150),
(103,132),
(91,154),
(76,156),
(15,76),
(86,153),
(18,100),
(9,63),
(110,150),
(125,143),
(78,141),
(90,158),
(11,69),
(45,146),
(98,135),
(23,129),
(82,130),
(39,72),
(5,93),
(31,57),
(40,80),
(98,141),
(110,136),
(28,98),
(23,107),
(44,111),
(14,69),
(95,133),
(35,118),
(129,136),
(67,134),
(83,141),
(66,145),
(56,140),
(29,87),
(124,156),
(19,100),
(96,130),
(29,58),
(76,137),
(50,145),
(12,76),
(35,55),
(9,113),
(4,126),
(37,75),
(15,66),
(14,50),
(51,134),
(69,137),
(13,50),
(72,149),
(49,155),
(34,96),
(37,84),
(29,55),
(39,96),
(114,133),
(75,140),
(49,149),
(38,111),
(53,152),
(95,141),
(40,75),
(32,60),
(90,137),
(51,149),
(11,89),
(25,101),
(24,86),
(6,112),
(35,115),
(28,61),
(76,153),
(21,63),
(44,65),
(51,138),
(9,84),
(20,74),
(120,156),
(11,123),
(42,90),
(77,151),
(13,76),
(95,157),
(21,75),
(24,47),
(24,102),
(2,67),
(66,137),
(9,122),
(36,82),
(25,71),
(123,142),
(54,134),
(89,135),
(19,99),
(44,69),
(104,142),
(28,125),
(18,56),
(63,134),
(72,141),
(108,139),
(127,146),
(18,121),
(86,151),
(107,148),
(96,138),
(33,83),
(39,114),
(69,157),
(47,130),
(30,111),
(119,154),
(108,153),
(68,157),
(35,74),
(31,48),
(89,143),
(8,96),
(4,100),
(45,149),
(7,57),
(38,46),
(25,67),
(113,134),
(72,152),
(19,81),
(61,155),
(11,80),
(42,114),
(42,64),
(43,97),
(65,133),
(41,46),
(32,54),
(14,84),
(105,139),
(6,51),
(38,51),
(25,77),
(14,118),
(110,140),
(33,103),
(61,141),
(42,105),
(114,132),
(113,151),
(13,107),
(24,62),
(86,134),
(121,136),
(97,132)
)

